100 10
3
47 81 36 71 53 70 9 15 18 29 53 60 42 82 2 29 17 35 19 16 23 12 99 56 66 20 3 81 44 38 42 74 37 40 27 4 51 22 37 35 30 7 88 88 15 10 19 77 56 18 71 60 24 32 39 16 52 90 80 46 96 94 84 23 15 44 83 55 98 27 45 98 81 87 27 77 48 87 94 5 97 98 28 65 68 85 72 33 99 48 99 89 69 65 99 71 1 1 71 25
757 824 618 580 817 486 540 756 611 746
0 0 0 0 0 0 0 16 24 0 0 0 0 60 0 0 0 0 70 0 0 0 0 0 0 0 0 0 40 0 0 0 0 0 0 0 0 88 0 0 0 3 0 35 0 61 0 0 0 0 0 84 0 0 0 28 2 0 0 0 23 53 0 0 0 0 29 0 0 39 0 0 0 0 0 0 0 50 0 0 0 0 0 0 71 39 0 85 97 0 0 34 0 33 0 0 0 0 0 0
0 80 0 0 61 0 0 0 0 40 0 0 0 67 0 30 0 0 0 0 93 0 0 0 0 0 0 0 0 39 0 0 22 0 0 0 0 18 0 0 0 49 0 93 0 0 0 0 0 0 0 0 0 0 0 86 0 0 36 0 0 63 0 0 0 0 0 0 0 0 0 0 0 0 0 0 0 0 0 75 0 0 0 0 0 0 86 0 20 0 68 0 0 83 0 0 61 0 0 0
0 0 0 53 11 0 0 92 45 0 0 0 0 0 0 0 0 0 51 30 0 0 0 0 0 0 0 0 0 53 0 0 0 0 0 0 0 0 0 0 0 0 0 0 8 0 0 80 0 0 0 8 0 0 0 0 84 0 0 0 0 0 0 0 0 0 0 0 0 0 0 0 0 0 0 0 0 0 51 0 7 0 0 0 0 0 0 20 3 0 0 0 0 68 80 0 0 94 0 0
0 0 20 0 9 60 0 0 0 0 0 0 98 0 43 0 0 0 1 0 39 0 0 0 0 0 0 3 0 0 0 0 28 0 0 0 0 73 53 0 0 0 94 0 0 0 0 0 0 0 0 0 0 0 0 0 0 0 0 0 0 0 0 8 0 0 0 0 0 0 0 0 87 0 0 0 78 0 0 0 0 0 0 0 0 4 0 0 0 0 0 0 0 0 0 0 36 62 0 0
0 0 0 0 0 0 0 0 22 76 0 0 0 0 0 0 0 60 47 0 0 0 0 0 94 0 0 0 0 0 0 53 43 0 0 0 0 0 0 0 0 0 0 0 50 0 0 0 0 0 0 0 0 0 90 27 0 65 0 69 0 0 0 0 0 0 0 0 88 0 0 6 0 6 0 92 0 69 0 0 77 0 0 0 0 0 25 0 0 0 0 0 0 0 0 70 12 0 74 0
0 0 0 0 0 0 0 0 0 67 0 57 0 0 0 0 0 0 0 0 0 0 0 0 0 0 69 40 0 0 49 0 0 33 0 0 0 0 0 0 0 0 0 0 0 0 0 0 0 0 0 64 0 0 0 4 7 0 0 0 0 0 0 0 0 0 0 49 0 0 74 0 0 0 0 42 0 0 0 0 0 0 0 2 89 0 0 10 0 0 0 0 0 0 0 0 0 0 0 0
0 0 0 72 0 0 0 0 28 0 0 0 0 0 0 0 0 0 0 0 0 0 57 0 0 34 0 0 43 0 0 0 0 0 0 0 0 0 0 1 0 0 0 0 0 0 0 0 2 0 0 0 0 0 0 0 0 0 0 0 47 0 0 0 0 0 0 0 0 0 0 0 0 0 0 15 0 0 0 0 96 80 0 0 10 0 0 0 0 90 22 19 0 0 0 0 0 76 0 0
0 0 0 0 29 0 0 0 74 0 0 0 0 0 84 0 0 56 0 17 0 0 62 0 0 33 0 16 0 0 23 0 0 0 0 0 0 27 47 0 0 0 0 0 0 0 0 0 0 0 0 0 0 13 0 0 0 0 0 0 29 5 0 40 0 0 0 4 0 74 67 0 0 0 0 0 0 81 0 40 0 0 0 0 94 0 0 0 0 0 0 65 0 72 0 0 0 0 0 0
0 0 88 0 0 17 0 0 0 19 0 0 11 0 7 0 0 0 0 0 0 0 0 0 8 0 0 0 38 0 0 0 5 0 0 0 88 0 79 84 0 0 0 0 94 0 0 0 77 0 0 0 0 0 0 0 0 0 0 0 0 0 0 0 0 0 0 0 0 0 0 0 0 0 0 0 0 89 0 0 0 0 0 0 0 0 46 0 2 0 71 0 0 35 0 0 0 0 0 0
11 67 0 0 0 0 0 0 0 11 0 82 0 0 0 0 29 0 0 0 11 0 0 0 0 0 18 0 0 0 0 0 0 0 0 11 0 0 0 0 0 0 0 0 0 58 0 0 0 0 0 0 0 0 0 1 0 0 16 33 0 0 40 72 0 83 0 0 0 31 22 64 0 79 0 0 0 12 0 0 0 0 21 0 67 0 0 0 0 0 82 0 0 0 0 0 0 0 0 88
0 0 0 0 0 0 0 9 12 0 0 0 0 13 0 0 0 0 18 0 0 0 0 0 0 0 0 0 14 0 0 0 0 0 0 0 0 78 0 0 0 0 0 7 0 55 0 0 0 0 0 44 0 0 0 11 1 0 0 0 12 15 0 0 0 0 23 0 0 11 0 0 0 0 0 0 0 13 0 0 0 0 0 0 29 31 0 82 4 0 0 28 0 1 0 0 0 0 0 0
0 49 0 0 49 0 0 0 0 23 0 0 0 57 0 16 0 0 0 0 41 0 0 0 0 0 0 0 0 26 0 0 16 0 0 0 0 2 0 0 0 47 0 17 0 0 0 0 0 0 0 0 0 0 0 20 0 0 0 0 0 6 0 0 0 0 0 0 0 0 0 0 0 0 0 0 0 0 0 22 0 0 0 0 0 0 79 0 10 0 34 0 0 40 0 0 38 0 0 0
0 0 0 21 2 0 0 32 42 0 0 0 0 0 0 0 0 0 44 3 0 0 0 0 0 0 0 0 0 41 0 0 0 0 0 0 0 0 0 0 0 0 0 0 1 0 0 27 0 0 0 3 0 0 0 0 48 0 0 0 0 0 0 0 0 0 0 0 0 0 0 0 0 0 0 0 0 0 10 0 4 0 0 0 0 0 0 17 1 0 0 0 0 29 30 0 0 75 0 0
0 0 2 0 7 51 0 0 0 0 0 0 73 0 23 0 0 0 0 0 0 0 0 0 0 0 0 0 0 0 0 0 17 0 0 0 0 40 51 0 0 0 21 0 0 0 0 0 0 0 0 0 0 0 0 0 0 0 0 0 0 0 0 6 0 0 0 0 0 0 0 0 26 0 0 0 15 0 0 0 0 0 0 0 0 0 0 0 0 0 0 0 0 0 0 0 17 10 0 0
0 0 0 0 0 0 0 0 17 3 0 0 0 0 0 0 0 39 9 0 0 0 0 0 29 0 0 0 0 0 0 3 7 0 0 0 0 0 0 0 0 0 0 0 16 0 0 0 0 0 0 0 0 0 4 26 0 6 0 32 0 0 0 0 0 0 0 0 81 0 0 5 0 5 0 27 0 51 0 0 59 0 0 0 0 0 22 0 0 0 0 0 0 0 0 8 8 0 29 0
0 0 0 0 0 0 0 0 0 28 0 31 0 0 0 0 0 0 0 0 0 0 0 0 0 0 34 17 0 0 28 0 0 16 0 0 0 0 0 0 0 0 0 0 0 0 0 0 0 0 0 8 0 0 0 3 4 0 0 0 0 0 0 0 0 0 0 7 0 0 12 0 0 0 0 32 0 0 0 0 0 0 0 0 75 0 0 8 0 0 0 0 0 0 0 0 0 0 0 0
0 0 0 0 0 0 0 0 20 0 0 0 0 0 0 0 0 0 0 0 0 0 45 0 0 28 0 0 13 0 0 0 0 0 0 0 0 0 0 0 0 0 0 0 0 0 0 0 1 0 0 0 0 0 0 0 0 0 0 0 39 0 0 0 0 0 0 0 0 0 0 0 0 0 0 2 0 0 0 0 68 76 0 0 9 0 0 0 0 4 9 4 0 0 0 0 0 37 0 0
0 0 0 0 21 0 0 0 35 0 0 0 0 0 48 0 0 0 0 9 0 0 50 0 0 12 0 6 0 0 19 0 0 0 0 0 0 4 35 0 0 0 0 0 0 0 0 0 0 0 0 0 0 6 0 0 0 0 0 0 4 2 0 19 0 0 0 2 0 44 35 0 0 0 0 0 0 14 0 29 0 0 0 0 51 0 0 0 0 0 0 60 0 67 0 0 0 0 0 0
0 0 29 0 0 3 0 0 0 1 0 0 5 0 3 0 0 0 0 0 0 0 0 0 6 0 0 0 27 0 0 0 4 0 0 0 56 0 21 39 0 0 0 0 74 0 0 0 29 0 0 0 0 0 0 0 0 0 0 0 0 0 0 0 0 0 0 0 0 0 0 0 0 0 0 0 0 29 0 0 0 0 0 0 0 0 24 0 0 0 16 0 0 0 0 0 0 0 0 0
4 13 0 0 0 0 0 0 0 1 0 2 0 0 0 0 2 0 0 0 3 0 0 0 0 0 12 0 0 0 0 0 0 0 0 7 0 0 0 0 0 0 0 0 0 21 0 0 0 0 0 0 0 0 0 0 0 0 13 26 0 0 12 64 0 1 0 0 0 4 10 42 0 32 0 0 0 10 0 0 0 0 2 0 65 0 0 0 0 0 77 0 0 0 0 0 0 0 0 83
